p cnf 150 225
1 50 0
1 116 0
1 7 0
2 11 0
2 68 0
2 27 0
3 96 0
3 102 0
3 6 0
4 75 0
4 87 0
4 102 0
5 81 0
5 133 0
5 16 0
6 12 0
6 18 0
7 80 0
7 65 0
8 62 0
8 60 0
8 118 0
9 10 0
9 48 0
9 67 0
10 61 0
10 86 0
11 110 0
11 32 0
12 139 0
12 43 0
13 133 0
13 23 0
13 115 0
14 17 0
14 66 0
14 45 0
15 42 0
15 104 0
15 126 0
16 100 0
16 103 0
17 146 0
17 72 0
18 37 0
18 123 0
19 35 0
19 94 0
19 149 0
20 132 0
20 91 0
20 107 0
21 147 0
21 63 0
21 66 0
22 67 0
22 47 0
22 111 0
23 32 0
23 95 0
24 60 0
24 140 0
24 114 0
25 113 0
25 40 0
25 149 0
26 147 0
26 119 0
26 124 0
27 55 0
27 110 0
28 91 0
28 121 0
28 88 0
29 57 0
29 141 0
29 70 0
30 62 0
30 56 0
30 144 0
31 61 0
31 44 0
31 89 0
32 77 0
33 64 0
33 92 0
33 148 0
34 130 0
34 54 0
34 142 0
35 39 0
35 53 0
36 102 0
36 124 0
36 108 0
37 96 0
37 119 0
38 146 0
38 118 0
38 86 0
39 128 0
39 117 0
40 104 0
40 49 0
41 71 0
41 120 0
41 76 0
42 101 0
42 121 0
43 81 0
43 57 0
44 146 0
44 131 0
45 108 0
45 48 0
46 137 0
46 118 0
46 87 0
47 116 0
47 78 0
48 95 0
49 101 0
49 103 0
50 104 0
50 101 0
51 131 0
51 137 0
51 80 0
52 143 0
52 77 0
52 100 0
53 81 0
53 82 0
54 112 0
54 125 0
55 139 0
55 75 0
56 111 0
56 105 0
57 90 0
58 99 0
58 125 0
58 73 0
59 98 0
59 69 0
59 143 0
60 85 0
61 76 0
62 63 0
63 133 0
64 148 0
64 140 0
65 132 0
65 126 0
66 90 0
67 143 0
68 136 0
68 106 0
69 79 0
69 97 0
70 123 0
70 99 0
71 145 0
71 130 0
72 117 0
72 130 0
73 82 0
73 93 0
74 124 0
74 127 0
74 135 0
75 88 0
76 129 0
77 134 0
78 79 0
78 122 0
79 120 0
80 112 0
82 122 0
83 84 0
83 128 0
83 105 0
84 116 0
84 145 0
85 97 0
85 87 0
86 114 0
88 107 0
89 138 0
89 135 0
90 92 0
91 99 0
92 147 0
93 132 0
93 121 0
94 139 0
94 150 0
95 144 0
96 106 0
97 109 0
98 138 0
98 106 0
100 105 0
103 141 0
107 142 0
108 134 0
109 149 0
109 129 0
110 142 0
111 126 0
112 136 0
113 150 0
113 115 0
114 141 0
115 135 0
117 123 0
119 144 0
120 150 0
122 129 0
125 137 0
127 136 0
127 134 0
128 131 0
138 148 0
140 145 0
g -91